10 10 4

0 203 496 105 173 287 282 55 52 153 
396 0 279 305 136 333 284 304 174 142 
411 232 0 266 217 431 222 388 440 374 
92 471 152 0 336 174 147 147 297 384 
379 302 143 483 0 405 372 287 491 411 
70 294 291 369 411 0 229 341 127 159 
62 222 306 386 264 276 0 488 306 156 
341 404 159 432 489 168 74 0 227 72 
152 464 62 269 240 62 266 315 0 179 
445 155 257 311 167 185 323 52 155 0 

193 0 5
193 1 2
193 2 6
193 3 8
193 4 0
193 5 6
193 6 4
193 7 6
193 8 4
193 9 7

